c Unsatisfiable just by unit propagation
c Extracted from voronkov's examples
c chapter 5 page 15
p cnf 10 21
1 0
-1 -2 0
1 2 0
-2 -3 7 0
3 2 0
-7 2 0
-3 4 0
-3 5 0
-4 -5 3 0
-4 -8 9 0
8 4 0
-9 4 0
-5 -6 10 0
6 5 0
-10 5 0
-6 8 0
-6 9 0
-8 -9 6 0
-7 -8 10 0
8 7 0
-10 7 0